benchmark/results/graph__10-1000-0.10-04_19/graph__10-1000-0.10-04_19_Quinton_Benders_sub.lp
\ This file has been generated by DOcplex
\ ENCODING=ISO-8859-1
\Problem name: Quinton Benders_dual_sub

Minimize
 obj: 0.001109877913 pi_nr_a0 + 0.001602564103 pi_nr_a1
      + 0.001116071429 pi_nr_a2 + 0.001209189843 pi_nr_a3
      + 0.000946073794 pi_nr_a4 + 0.001038421599 pi_nr_a5
      + 0.001216545012 pi_nr_a6 + 0.001240694789 pi_nr_a7
      + 0.001083423619 pi_nr_a8 + 0.001062699256 pi_nr_a9 + pi_p_a2_a3
      + pi_p_a4_a2 + pi_p_a5_a2 + pi_p_a6_a7 + pi_p_a3_a8 + pi_p_a0_a9
      + pi_p_a6_a3 + pi_p_a5_a8 + pi_p_a4_a9 + pi_p_a4_a1 + pi_p_a5_a3
      + 3633 pi_d_a0_a1_proc_2 + 3633 pi_d_a0_a1_proc_3 + 2338 pi_d_a0_a1_proc_0
      + 1548 pi_d_a1_a0_proc_2 + 1548 pi_d_a1_a0_proc_3 + 253 pi_d_a1_a0_proc_0
      + 3665 pi_d_a0_a2_proc_2 + 3665 pi_d_a0_a2_proc_3 + 2370 pi_d_a0_a2_proc_0
      + 1516 pi_d_a2_a0_proc_2 + 1516 pi_d_a2_a0_proc_3 + 221 pi_d_a2_a0_proc_0
      + 2531 pi_d_a0_a3_proc_3 + 3826 pi_d_a0_a3_proc_0 + 2531 pi_d_a0_a3_proc_1
      + 60 pi_d_a3_a0_proc_3 + 1355 pi_d_a3_a0_proc_0 + 60 pi_d_a3_a0_proc_1
      + 1431 pi_d_a0_a4_proc_2 + 136 pi_d_a0_a4_proc_0 + 136 pi_d_a0_a4_proc_1
      + 3750 pi_d_a4_a0_proc_2 + 2455 pi_d_a4_a0_proc_0 + 2455 pi_d_a4_a0_proc_1
      + 133 pi_d_a0_a5_proc_2 + 133 pi_d_a0_a5_proc_1 + 2458 pi_d_a5_a0_proc_2
      + 2458 pi_d_a5_a0_proc_1 + 164 pi_d_a0_a6_proc_2 + 1459 pi_d_a0_a6_proc_3
      + 1459 pi_d_a0_a6_proc_0 + 164 pi_d_a0_a6_proc_1 + 2427 pi_d_a6_a0_proc_2
      + 3722 pi_d_a6_a0_proc_3 + 3722 pi_d_a6_a0_proc_0 + 2427 pi_d_a6_a0_proc_1
      + 1422 pi_d_a0_a7_proc_2 + 127 pi_d_a0_a7_proc_3 + 1422 pi_d_a0_a7_proc_0
      + 127 pi_d_a0_a7_proc_1 + 3759 pi_d_a7_a0_proc_2 + 2464 pi_d_a7_a0_proc_3
      + 3759 pi_d_a7_a0_proc_0 + 2464 pi_d_a7_a0_proc_1 + 2591 pi_d_a0_a8_proc_2
      + 2591 pi_d_a0_a8_proc_0 + pi_d_a0_a8_proc_1 + 2590 pi_d_a8_a0_proc_2
      + 2590 pi_d_a8_a0_proc_0 + 2591 pi_d_a0_a9_proc_2 + 2591 pi_d_a0_a9_proc_3
      + 2591 pi_d_a0_a9_proc_0 + pi_d_a0_a9_proc_1 + 2590 pi_d_a9_a0_proc_2
      + 2590 pi_d_a9_a0_proc_3 + 2590 pi_d_a9_a0_proc_0 + 2591 pi_d_a1_a2_proc_2
      + 2591 pi_d_a1_a2_proc_3 + pi_d_a1_a2_proc_0 + 2590 pi_d_a2_a1_proc_2
      + 2590 pi_d_a2_a1_proc_3 + 2557 pi_d_a1_a3_proc_3 + 2557 pi_d_a1_a3_proc_0
      + 34 pi_d_a3_a1_proc_3 + 34 pi_d_a3_a1_proc_0 + 2590 pi_d_a1_a4_proc_2
      + 2591 pi_d_a4_a1_proc_2 + pi_d_a4_a1_proc_0 + 2591 pi_d_a5_a1_proc_2
      + 129 pi_d_a1_a6_proc_2 + 1424 pi_d_a1_a6_proc_3 + 129 pi_d_a1_a6_proc_0
      + 2462 pi_d_a6_a1_proc_2 + 3757 pi_d_a6_a1_proc_3 + 2462 pi_d_a6_a1_proc_0
      + 3702 pi_d_a1_a7_proc_2 + 2407 pi_d_a1_a7_proc_3 + 2407 pi_d_a1_a7_proc_0
      + 1479 pi_d_a7_a1_proc_2 + 184 pi_d_a7_a1_proc_3 + 184 pi_d_a7_a1_proc_0
      + 3885 pi_d_a1_a8_proc_2 + 2590 pi_d_a1_a8_proc_0 + 1296 pi_d_a8_a1_proc_2
      + pi_d_a8_a1_proc_0 + 1525 pi_d_a1_a9_proc_2 + 1525 pi_d_a1_a9_proc_3
      + 230 pi_d_a1_a9_proc_0 + 3656 pi_d_a9_a1_proc_2 + 3656 pi_d_a9_a1_proc_3
      + 2361 pi_d_a9_a1_proc_0 + 11 pi_d_a2_a3_proc_3 + 11 pi_d_a2_a3_proc_0
      + 2580 pi_d_a3_a2_proc_3 + 2580 pi_d_a3_a2_proc_0 + 2590 pi_d_a2_a4_proc_2
      + 2591 pi_d_a4_a2_proc_2 + pi_d_a4_a2_proc_0 + 2590 pi_d_a2_a5_proc_2
      + pi_d_a5_a2_proc_2 + 2590 pi_d_a2_a6_proc_2 + 3885 pi_d_a2_a6_proc_3
      + 2590 pi_d_a2_a6_proc_0 + pi_d_a6_a2_proc_2 + 1296 pi_d_a6_a2_proc_3
      + pi_d_a6_a2_proc_0 + 3886 pi_d_a2_a7_proc_2 + 2591 pi_d_a2_a7_proc_3
      + 2591 pi_d_a2_a7_proc_0 + 1295 pi_d_a7_a2_proc_2 + 3878 pi_d_a2_a8_proc_2
      + 2583 pi_d_a2_a8_proc_0 + 1303 pi_d_a8_a2_proc_2 + 8 pi_d_a8_a2_proc_0
      + 3885 pi_d_a2_a9_proc_2 + 3885 pi_d_a2_a9_proc_3 + 2590 pi_d_a2_a9_proc_0
      + 1296 pi_d_a9_a2_proc_2 + 1296 pi_d_a9_a2_proc_3 + pi_d_a9_a2_proc_0
      + 151 pi_d_a3_a4_proc_0 + 1446 pi_d_a3_a4_proc_1 + 2440 pi_d_a4_a3_proc_0
      + 3735 pi_d_a4_a3_proc_1 + 5180 pi_d_a3_a5_proc_1 + pi_d_a5_a3_proc_1
      + 2590 pi_d_a3_a6_proc_3 + 3885 pi_d_a3_a6_proc_0 + 3885 pi_d_a3_a6_proc_1
      + pi_d_a6_a3_proc_3 + 1296 pi_d_a6_a3_proc_0 + 1296 pi_d_a6_a3_proc_1
      + pi_d_a3_a7_proc_3 + 2591 pi_d_a3_a7_proc_0 + 2591 pi_d_a3_a7_proc_1
      + 2590 pi_d_a7_a3_proc_0 + 2590 pi_d_a7_a3_proc_1 + 1295 pi_d_a3_a8_proc_0
      + 3886 pi_d_a8_a3_proc_0 + 2591 pi_d_a8_a3_proc_1 + 166 pi_d_a3_a9_proc_3
      + 1461 pi_d_a3_a9_proc_0 + 166 pi_d_a3_a9_proc_1 + 2425 pi_d_a9_a3_proc_3
      + 3720 pi_d_a9_a3_proc_0 + 2425 pi_d_a9_a3_proc_1 + 2440 pi_d_a4_a5_proc_2
      + 3735 pi_d_a4_a5_proc_1 + 151 pi_d_a5_a4_proc_2 + 1446 pi_d_a5_a4_proc_1
      + 2294 pi_d_a4_a6_proc_2 + 2294 pi_d_a4_a6_proc_0 + 3589 pi_d_a4_a6_proc_1
      + 297 pi_d_a6_a4_proc_2 + 297 pi_d_a6_a4_proc_0 + 1592 pi_d_a6_a4_proc_1
      + 3886 pi_d_a4_a7_proc_2 + 2591 pi_d_a4_a7_proc_0 + 3886 pi_d_a4_a7_proc_1
      + 1295 pi_d_a7_a4_proc_2 + 1295 pi_d_a7_a4_proc_1 + 3731 pi_d_a4_a8_proc_2
      + 2436 pi_d_a4_a8_proc_0 + 2436 pi_d_a4_a8_proc_1 + 1450 pi_d_a8_a4_proc_2
      + 155 pi_d_a8_a4_proc_0 + 155 pi_d_a8_a4_proc_1 + 1552 pi_d_a4_a9_proc_2
      + 257 pi_d_a4_a9_proc_0 + 257 pi_d_a4_a9_proc_1 + 3629 pi_d_a9_a4_proc_2
      + 2334 pi_d_a9_a4_proc_0 + 2334 pi_d_a9_a4_proc_1 + pi_d_a5_a6_proc_2
      + 2591 pi_d_a5_a6_proc_1 + 2590 pi_d_a6_a5_proc_1 + 2592 pi_d_a5_a7_proc_2
      + 3887 pi_d_a5_a7_proc_1 - pi_d_a7_a5_proc_2 + 1294 pi_d_a7_a5_proc_1
      + 2591 pi_d_a5_a8_proc_2 + 2591 pi_d_a5_a8_proc_1 + 2434 pi_d_a5_a9_proc_2
      + 2434 pi_d_a5_a9_proc_1 + 157 pi_d_a9_a5_proc_2 + 157 pi_d_a9_a5_proc_1
      + 2591 pi_d_a6_a7_proc_2 + 2591 pi_d_a6_a7_proc_3 + 3886 pi_d_a6_a7_proc_0
      + 3886 pi_d_a6_a7_proc_1 + 1295 pi_d_a7_a6_proc_0 + 1295 pi_d_a7_a6_proc_1
      + 2466 pi_d_a6_a8_proc_2 + 3761 pi_d_a6_a8_proc_0 + 2466 pi_d_a6_a8_proc_1
      + 125 pi_d_a8_a6_proc_2 + 1420 pi_d_a8_a6_proc_0 + 125 pi_d_a8_a6_proc_1
      + 240 pi_d_a6_a9_proc_2 + 1535 pi_d_a6_a9_proc_3 + 1535 pi_d_a6_a9_proc_0
      + 240 pi_d_a6_a9_proc_1 + 2351 pi_d_a9_a6_proc_2 + 3646 pi_d_a9_a6_proc_3
      + 3646 pi_d_a9_a6_proc_0 + 2351 pi_d_a9_a6_proc_1 + 3681 pi_d_a7_a8_proc_2
      + 3681 pi_d_a7_a8_proc_0 + 2386 pi_d_a7_a8_proc_1 + 1500 pi_d_a8_a7_proc_2
      + 1500 pi_d_a8_a7_proc_0 + 205 pi_d_a8_a7_proc_1 + 1322 pi_d_a7_a9_proc_2
      + 27 pi_d_a7_a9_proc_3 + 1322 pi_d_a7_a9_proc_0 + 27 pi_d_a7_a9_proc_1
      + 3859 pi_d_a9_a7_proc_2 + 2564 pi_d_a9_a7_proc_3 + 3859 pi_d_a9_a7_proc_0
      + 2564 pi_d_a9_a7_proc_1 + 2591 pi_d_a8_a9_proc_2 + 2591 pi_d_a8_a9_proc_0
      + pi_d_a8_a9_proc_1 + 2590 pi_d_a9_a8_proc_2 + 2590 pi_d_a9_a8_proc_0
      + pi_y2_a0_proc_1 + pi_y2_a1_proc_0 + pi_y2_a2_proc_0 + pi_y2_a3_proc_3
      + pi_y2_a4_proc_0 + pi_y2_a5_proc_2 + pi_y2_a6_proc_2 + pi_y2_a7_proc_3
      + pi_y2_a8_proc_1 + pi_y2_a9_proc_1
Subject To
 c1: pi_nr_a0 + pi_nr_a1 + pi_nr_a2 + pi_nr_a3 + pi_nr_a4 + pi_nr_a5 + pi_nr_a6
     + pi_nr_a7 + pi_nr_a8 + pi_nr_a9 - pi_y1_a0 - pi_y1_a1 - pi_y1_a2
     - pi_y1_a3 - pi_y1_a4 - pi_y1_a5 - pi_y1_a6 - pi_y1_a7 - pi_y1_a8
     - pi_y1_a9 >= 1
 c2: - pi_p_a1_a0 + pi_p_a0_a9 + pi_d_a0_a1_proc_2 + pi_d_a0_a1_proc_3
     + pi_d_a0_a1_proc_0 - pi_d_a1_a0_proc_2 - pi_d_a1_a0_proc_3
     - pi_d_a1_a0_proc_0 + pi_d_a0_a2_proc_2 + pi_d_a0_a2_proc_3
     + pi_d_a0_a2_proc_0 - pi_d_a2_a0_proc_2 - pi_d_a2_a0_proc_3
     - pi_d_a2_a0_proc_0 + pi_d_a0_a3_proc_3 + pi_d_a0_a3_proc_0
     + pi_d_a0_a3_proc_1 - pi_d_a3_a0_proc_3 - pi_d_a3_a0_proc_0
     - pi_d_a3_a0_proc_1 + pi_d_a0_a4_proc_2 + pi_d_a0_a4_proc_0
     + pi_d_a0_a4_proc_1 - pi_d_a4_a0_proc_2 - pi_d_a4_a0_proc_0
     - pi_d_a4_a0_proc_1 + pi_d_a0_a5_proc_2 + pi_d_a0_a5_proc_1
     - pi_d_a5_a0_proc_2 - pi_d_a5_a0_proc_1 + pi_d_a0_a6_proc_2
     + pi_d_a0_a6_proc_3 + pi_d_a0_a6_proc_0 + pi_d_a0_a6_proc_1
     - pi_d_a6_a0_proc_2 - pi_d_a6_a0_proc_3 - pi_d_a6_a0_proc_0
     - pi_d_a6_a0_proc_1 + pi_d_a0_a7_proc_2 + pi_d_a0_a7_proc_3
     + pi_d_a0_a7_proc_0 + pi_d_a0_a7_proc_1 - pi_d_a7_a0_proc_2
     - pi_d_a7_a0_proc_3 - pi_d_a7_a0_proc_0 - pi_d_a7_a0_proc_1
     + pi_d_a0_a8_proc_2 + pi_d_a0_a8_proc_0 + pi_d_a0_a8_proc_1
     - pi_d_a8_a0_proc_2 - pi_d_a8_a0_proc_0 - pi_d_a8_a0_proc_1
     + pi_d_a0_a9_proc_2 + pi_d_a0_a9_proc_3 + pi_d_a0_a9_proc_0
     + pi_d_a0_a9_proc_1 - pi_d_a9_a0_proc_2 - pi_d_a9_a0_proc_3
     - pi_d_a9_a0_proc_0 - pi_d_a9_a0_proc_1 >= 0
 c3: 939 pi_p_a0_a9 + 939 pi_d_a0_a1_proc_0 + 939 pi_d_a0_a2_proc_0
     + 939 pi_d_a0_a3_proc_0 + 939 pi_d_a0_a4_proc_0 + 939 pi_d_a0_a6_proc_0
     + 939 pi_d_a0_a7_proc_0 + 939 pi_d_a0_a8_proc_0 + 939 pi_d_a0_a9_proc_0
     + pi_y1_a0 + pi_y2_a0_proc_0 >= 0
 c4: 901 pi_p_a0_a9 + 901 pi_d_a0_a3_proc_1 + 901 pi_d_a0_a4_proc_1
     + 901 pi_d_a0_a5_proc_1 + 901 pi_d_a0_a6_proc_1 + 901 pi_d_a0_a7_proc_1
     + 901 pi_d_a0_a8_proc_1 + 901 pi_d_a0_a9_proc_1 + pi_y1_a0
     + pi_y2_a0_proc_1 >= 0
 c5: 1219 pi_p_a0_a9 + 1219 pi_d_a0_a1_proc_2 + 1219 pi_d_a0_a2_proc_2
     + 1219 pi_d_a0_a4_proc_2 + 1219 pi_d_a0_a5_proc_2 + 1219 pi_d_a0_a6_proc_2
     + 1219 pi_d_a0_a7_proc_2 + 1219 pi_d_a0_a8_proc_2 + 1219 pi_d_a0_a9_proc_2
     + pi_y1_a0 + pi_y2_a0_proc_2 >= 0
 c6: 1023 pi_p_a0_a9 + 1023 pi_d_a0_a1_proc_3 + 1023 pi_d_a0_a2_proc_3
     + 1023 pi_d_a0_a3_proc_3 + 1023 pi_d_a0_a6_proc_3 + 1023 pi_d_a0_a7_proc_3
     + 1023 pi_d_a0_a9_proc_3 + pi_y1_a0 + pi_y2_a0_proc_3 >= 0
 c7: pi_p_a1_a0 - pi_p_a2_a1 - pi_p_a4_a1 + pi_p_a1_a4 - pi_d_a0_a1_proc_2
     - pi_d_a0_a1_proc_3 - pi_d_a0_a1_proc_0 + pi_d_a1_a0_proc_2
     + pi_d_a1_a0_proc_3 + pi_d_a1_a0_proc_0 + pi_d_a1_a2_proc_2
     + pi_d_a1_a2_proc_3 + pi_d_a1_a2_proc_0 - pi_d_a2_a1_proc_2
     - pi_d_a2_a1_proc_3 - pi_d_a2_a1_proc_0 + pi_d_a1_a3_proc_3
     + pi_d_a1_a3_proc_0 - pi_d_a3_a1_proc_3 - pi_d_a3_a1_proc_0
     + pi_d_a1_a4_proc_2 + pi_d_a1_a4_proc_0 - pi_d_a4_a1_proc_2
     - pi_d_a4_a1_proc_0 + pi_d_a1_a5_proc_2 - pi_d_a5_a1_proc_2
     + pi_d_a1_a6_proc_2 + pi_d_a1_a6_proc_3 + pi_d_a1_a6_proc_0
     - pi_d_a6_a1_proc_2 - pi_d_a6_a1_proc_3 - pi_d_a6_a1_proc_0
     + pi_d_a1_a7_proc_2 + pi_d_a1_a7_proc_3 + pi_d_a1_a7_proc_0
     - pi_d_a7_a1_proc_2 - pi_d_a7_a1_proc_3 - pi_d_a7_a1_proc_0
     + pi_d_a1_a8_proc_2 + pi_d_a1_a8_proc_0 - pi_d_a8_a1_proc_2
     - pi_d_a8_a1_proc_0 + pi_d_a1_a9_proc_2 + pi_d_a1_a9_proc_3
     + pi_d_a1_a9_proc_0 - pi_d_a9_a1_proc_2 - pi_d_a9_a1_proc_3
     - pi_d_a9_a1_proc_0 >= 0
 c8: 624 pi_p_a1_a0 + 624 pi_p_a1_a4 + 624 pi_d_a1_a0_proc_0
     + 624 pi_d_a1_a2_proc_0 + 624 pi_d_a1_a3_proc_0 + 624 pi_d_a1_a4_proc_0
     + 624 pi_d_a1_a6_proc_0 + 624 pi_d_a1_a7_proc_0 + 624 pi_d_a1_a8_proc_0
     + 624 pi_d_a1_a9_proc_0 + pi_y1_a1 + pi_y2_a1_proc_0 >= 0
 c9: 802 pi_p_a1_a0 + 802 pi_p_a1_a4 + 802 pi_d_a1_a0_proc_2
     + 802 pi_d_a1_a2_proc_2 + 802 pi_d_a1_a4_proc_2 + 802 pi_d_a1_a5_proc_2
     + 802 pi_d_a1_a6_proc_2 + 802 pi_d_a1_a7_proc_2 + 802 pi_d_a1_a8_proc_2
     + 802 pi_d_a1_a9_proc_2 + pi_y1_a1 + pi_y2_a1_proc_2 >= 0
 c10: 780 pi_p_a1_a0 + 780 pi_p_a1_a4 + 780 pi_d_a1_a0_proc_3
      + 780 pi_d_a1_a2_proc_3 + 780 pi_d_a1_a3_proc_3 + 780 pi_d_a1_a6_proc_3
      + 780 pi_d_a1_a7_proc_3 + 780 pi_d_a1_a9_proc_3 + pi_y1_a1
      + pi_y2_a1_proc_3 >= 0
 c11: pi_p_a2_a1 + pi_p_a2_a3 - pi_p_a4_a2 - pi_p_a5_a2 + pi_p_a2_a6
      - pi_p_a7_a2 - pi_d_a0_a2_proc_2 - pi_d_a0_a2_proc_3 - pi_d_a0_a2_proc_0
      + pi_d_a2_a0_proc_2 + pi_d_a2_a0_proc_3 + pi_d_a2_a0_proc_0
      - pi_d_a1_a2_proc_2 - pi_d_a1_a2_proc_3 - pi_d_a1_a2_proc_0
      + pi_d_a2_a1_proc_2 + pi_d_a2_a1_proc_3 + pi_d_a2_a1_proc_0
      + pi_d_a2_a3_proc_3 + pi_d_a2_a3_proc_0 - pi_d_a3_a2_proc_3
      - pi_d_a3_a2_proc_0 + pi_d_a2_a4_proc_2 + pi_d_a2_a4_proc_0
      - pi_d_a4_a2_proc_2 - pi_d_a4_a2_proc_0 + pi_d_a2_a5_proc_2
      - pi_d_a5_a2_proc_2 + pi_d_a2_a6_proc_2 + pi_d_a2_a6_proc_3
      + pi_d_a2_a6_proc_0 - pi_d_a6_a2_proc_2 - pi_d_a6_a2_proc_3
      - pi_d_a6_a2_proc_0 + pi_d_a2_a7_proc_2 + pi_d_a2_a7_proc_3
      + pi_d_a2_a7_proc_0 - pi_d_a7_a2_proc_2 - pi_d_a7_a2_proc_3
      - pi_d_a7_a2_proc_0 + pi_d_a2_a8_proc_2 + pi_d_a2_a8_proc_0
      - pi_d_a8_a2_proc_2 - pi_d_a8_a2_proc_0 + pi_d_a2_a9_proc_2
      + pi_d_a2_a9_proc_3 + pi_d_a2_a9_proc_0 - pi_d_a9_a2_proc_2
      - pi_d_a9_a2_proc_3 - pi_d_a9_a2_proc_0 >= 0
 c12: 896 pi_p_a2_a1 + 896 pi_p_a2_a3 + 896 pi_p_a2_a6 + 896 pi_d_a2_a0_proc_0
      + 896 pi_d_a2_a1_proc_0 + 896 pi_d_a2_a3_proc_0 + 896 pi_d_a2_a4_proc_0
      + 896 pi_d_a2_a6_proc_0 + 896 pi_d_a2_a7_proc_0 + 896 pi_d_a2_a8_proc_0
      + 896 pi_d_a2_a9_proc_0 + pi_y1_a2 + pi_y2_a2_proc_0 >= 0
 c13: 1112 pi_p_a2_a1 + 1112 pi_p_a2_a3 + 1112 pi_p_a2_a6
      + 1112 pi_d_a2_a0_proc_2 + 1112 pi_d_a2_a1_proc_2 + 1112 pi_d_a2_a4_proc_2
      + 1112 pi_d_a2_a5_proc_2 + 1112 pi_d_a2_a6_proc_2 + 1112 pi_d_a2_a7_proc_2
      + 1112 pi_d_a2_a8_proc_2 + 1112 pi_d_a2_a9_proc_2 + pi_y1_a2
      + pi_y2_a2_proc_2 >= 0
 c14: 944 pi_p_a2_a1 + 944 pi_p_a2_a3 + 944 pi_p_a2_a6 + 944 pi_d_a2_a0_proc_3
      + 944 pi_d_a2_a1_proc_3 + 944 pi_d_a2_a3_proc_3 + 944 pi_d_a2_a6_proc_3
      + 944 pi_d_a2_a7_proc_3 + 944 pi_d_a2_a9_proc_3 + pi_y1_a2
      + pi_y2_a2_proc_3 >= 0
 c15: - pi_p_a2_a3 + pi_p_a3_a6 + pi_p_a3_a8 - pi_p_a6_a3 - pi_p_a5_a3
      - pi_d_a0_a3_proc_3 - pi_d_a0_a3_proc_0 - pi_d_a0_a3_proc_1
      + pi_d_a3_a0_proc_3 + pi_d_a3_a0_proc_0 + pi_d_a3_a0_proc_1
      - pi_d_a1_a3_proc_3 - pi_d_a1_a3_proc_0 + pi_d_a3_a1_proc_3
      + pi_d_a3_a1_proc_0 - pi_d_a2_a3_proc_3 - pi_d_a2_a3_proc_0
      + pi_d_a3_a2_proc_3 + pi_d_a3_a2_proc_0 + pi_d_a3_a4_proc_0
      + pi_d_a3_a4_proc_1 - pi_d_a4_a3_proc_0 - pi_d_a4_a3_proc_1
      + pi_d_a3_a5_proc_1 - pi_d_a5_a3_proc_1 + pi_d_a3_a6_proc_3
      + pi_d_a3_a6_proc_0 + pi_d_a3_a6_proc_1 - pi_d_a6_a3_proc_3
      - pi_d_a6_a3_proc_0 - pi_d_a6_a3_proc_1 + pi_d_a3_a7_proc_3
      + pi_d_a3_a7_proc_0 + pi_d_a3_a7_proc_1 - pi_d_a7_a3_proc_3
      - pi_d_a7_a3_proc_0 - pi_d_a7_a3_proc_1 + pi_d_a3_a8_proc_0
      + pi_d_a3_a8_proc_1 - pi_d_a8_a3_proc_0 - pi_d_a8_a3_proc_1
      + pi_d_a3_a9_proc_3 + pi_d_a3_a9_proc_0 + pi_d_a3_a9_proc_1
      - pi_d_a9_a3_proc_3 - pi_d_a9_a3_proc_0 - pi_d_a9_a3_proc_1 >= 0
 c16: 1283 pi_p_a3_a6 + 1283 pi_p_a3_a8 + 1283 pi_d_a3_a0_proc_0
      + 1283 pi_d_a3_a1_proc_0 + 1283 pi_d_a3_a2_proc_0 + 1283 pi_d_a3_a4_proc_0
      + 1283 pi_d_a3_a6_proc_0 + 1283 pi_d_a3_a7_proc_0 + 1283 pi_d_a3_a8_proc_0
      + 1283 pi_d_a3_a9_proc_0 + pi_y1_a3 + pi_y2_a3_proc_0 >= 0
 c17: 896 pi_p_a3_a6 + 896 pi_p_a3_a8 + 896 pi_d_a3_a0_proc_1
      + 896 pi_d_a3_a4_proc_1 + 896 pi_d_a3_a5_proc_1 + 896 pi_d_a3_a6_proc_1
      + 896 pi_d_a3_a7_proc_1 + 896 pi_d_a3_a8_proc_1 + 896 pi_d_a3_a9_proc_1
      + pi_y1_a3 + pi_y2_a3_proc_1 >= 0
 c18: 827 pi_p_a3_a6 + 827 pi_p_a3_a8 + 827 pi_d_a3_a0_proc_3
      + 827 pi_d_a3_a1_proc_3 + 827 pi_d_a3_a2_proc_3 + 827 pi_d_a3_a6_proc_3
      + 827 pi_d_a3_a7_proc_3 + 827 pi_d_a3_a9_proc_3 + pi_y1_a3
      + pi_y2_a3_proc_3 >= 0
 c19: pi_p_a4_a2 + pi_p_a4_a9 + pi_p_a4_a1 - pi_p_a1_a4 - pi_d_a0_a4_proc_2
      - pi_d_a0_a4_proc_0 - pi_d_a0_a4_proc_1 + pi_d_a4_a0_proc_2
      + pi_d_a4_a0_proc_0 + pi_d_a4_a0_proc_1 - pi_d_a1_a4_proc_2
      - pi_d_a1_a4_proc_0 + pi_d_a4_a1_proc_2 + pi_d_a4_a1_proc_0
      - pi_d_a2_a4_proc_2 - pi_d_a2_a4_proc_0 + pi_d_a4_a2_proc_2
      + pi_d_a4_a2_proc_0 - pi_d_a3_a4_proc_0 - pi_d_a3_a4_proc_1
      + pi_d_a4_a3_proc_0 + pi_d_a4_a3_proc_1 + pi_d_a4_a5_proc_2
      + pi_d_a4_a5_proc_1 - pi_d_a5_a4_proc_2 - pi_d_a5_a4_proc_1
      + pi_d_a4_a6_proc_2 + pi_d_a4_a6_proc_0 + pi_d_a4_a6_proc_1
      - pi_d_a6_a4_proc_2 - pi_d_a6_a4_proc_0 - pi_d_a6_a4_proc_1
      + pi_d_a4_a7_proc_2 + pi_d_a4_a7_proc_0 + pi_d_a4_a7_proc_1
      - pi_d_a7_a4_proc_2 - pi_d_a7_a4_proc_0 - pi_d_a7_a4_proc_1
      + pi_d_a4_a8_proc_2 + pi_d_a4_a8_proc_0 + pi_d_a4_a8_proc_1
      - pi_d_a8_a4_proc_2 - pi_d_a8_a4_proc_0 - pi_d_a8_a4_proc_1
      + pi_d_a4_a9_proc_2 + pi_d_a4_a9_proc_0 + pi_d_a4_a9_proc_1
      - pi_d_a9_a4_proc_2 - pi_d_a9_a4_proc_0 - pi_d_a9_a4_proc_1 >= 0
 c20: 1057 pi_p_a4_a2 + 1057 pi_p_a4_a9 + 1057 pi_p_a4_a1
      + 1057 pi_d_a4_a0_proc_0 + 1057 pi_d_a4_a1_proc_0 + 1057 pi_d_a4_a2_proc_0
      + 1057 pi_d_a4_a3_proc_0 + 1057 pi_d_a4_a6_proc_0 + 1057 pi_d_a4_a7_proc_0
      + 1057 pi_d_a4_a8_proc_0 + 1057 pi_d_a4_a9_proc_0 + pi_y1_a4
      + pi_y2_a4_proc_0 >= 0
 c21: 1256 pi_p_a4_a2 + 1256 pi_p_a4_a9 + 1256 pi_p_a4_a1
      + 1256 pi_d_a4_a0_proc_1 + 1256 pi_d_a4_a3_proc_1 + 1256 pi_d_a4_a5_proc_1
      + 1256 pi_d_a4_a6_proc_1 + 1256 pi_d_a4_a7_proc_1 + 1256 pi_d_a4_a8_proc_1
      + 1256 pi_d_a4_a9_proc_1 + pi_y1_a4 + pi_y2_a4_proc_1 >= 0
 c22: 969 pi_p_a4_a2 + 969 pi_p_a4_a9 + 969 pi_p_a4_a1 + 969 pi_d_a4_a0_proc_2
      + 969 pi_d_a4_a1_proc_2 + 969 pi_d_a4_a2_proc_2 + 969 pi_d_a4_a5_proc_2
      + 969 pi_d_a4_a6_proc_2 + 969 pi_d_a4_a7_proc_2 + 969 pi_d_a4_a8_proc_2
      + 969 pi_d_a4_a9_proc_2 + pi_y1_a4 + pi_y2_a4_proc_2 >= 0
 c23: pi_p_a5_a2 - pi_p_a8_a5 - pi_p_a6_a5 + pi_p_a5_a8 + pi_p_a5_a3
      - pi_d_a0_a5_proc_2 - pi_d_a0_a5_proc_1 + pi_d_a5_a0_proc_2
      + pi_d_a5_a0_proc_1 - pi_d_a1_a5_proc_2 + pi_d_a5_a1_proc_2
      - pi_d_a2_a5_proc_2 + pi_d_a5_a2_proc_2 - pi_d_a3_a5_proc_1
      + pi_d_a5_a3_proc_1 - pi_d_a4_a5_proc_2 - pi_d_a4_a5_proc_1
      + pi_d_a5_a4_proc_2 + pi_d_a5_a4_proc_1 + pi_d_a5_a6_proc_2
      + pi_d_a5_a6_proc_1 - pi_d_a6_a5_proc_2 - pi_d_a6_a5_proc_1
      + pi_d_a5_a7_proc_2 + pi_d_a5_a7_proc_1 - pi_d_a7_a5_proc_2
      - pi_d_a7_a5_proc_1 + pi_d_a5_a8_proc_2 + pi_d_a5_a8_proc_1
      - pi_d_a8_a5_proc_2 - pi_d_a8_a5_proc_1 + pi_d_a5_a9_proc_2
      + pi_d_a5_a9_proc_1 - pi_d_a9_a5_proc_2 - pi_d_a9_a5_proc_1 >= 0
 c24: 538 pi_p_a5_a2 + 538 pi_p_a5_a8 + 538 pi_p_a5_a3 + 538 pi_d_a5_a0_proc_1
      + 538 pi_d_a5_a3_proc_1 + 538 pi_d_a5_a4_proc_1 + 538 pi_d_a5_a6_proc_1
      + 538 pi_d_a5_a7_proc_1 + 538 pi_d_a5_a8_proc_1 + 538 pi_d_a5_a9_proc_1
      + pi_y1_a5 + pi_y2_a5_proc_1 >= 0
 c25: 963 pi_p_a5_a2 + 963 pi_p_a5_a8 + 963 pi_p_a5_a3 + 963 pi_d_a5_a0_proc_2
      + 963 pi_d_a5_a1_proc_2 + 963 pi_d_a5_a2_proc_2 + 963 pi_d_a5_a4_proc_2
      + 963 pi_d_a5_a6_proc_2 + 963 pi_d_a5_a7_proc_2 + 963 pi_d_a5_a8_proc_2
      + 963 pi_d_a5_a9_proc_2 + pi_y1_a5 + pi_y2_a5_proc_2 >= 0
 c26: - pi_p_a3_a6 + pi_p_a6_a7 + pi_p_a6_a3 - pi_p_a2_a6 + pi_p_a6_a5
      - pi_d_a0_a6_proc_2 - pi_d_a0_a6_proc_3 - pi_d_a0_a6_proc_0
      - pi_d_a0_a6_proc_1 + pi_d_a6_a0_proc_2 + pi_d_a6_a0_proc_3
      + pi_d_a6_a0_proc_0 + pi_d_a6_a0_proc_1 - pi_d_a1_a6_proc_2
      - pi_d_a1_a6_proc_3 - pi_d_a1_a6_proc_0 + pi_d_a6_a1_proc_2
      + pi_d_a6_a1_proc_3 + pi_d_a6_a1_proc_0 - pi_d_a2_a6_proc_2
      - pi_d_a2_a6_proc_3 - pi_d_a2_a6_proc_0 + pi_d_a6_a2_proc_2
      + pi_d_a6_a2_proc_3 + pi_d_a6_a2_proc_0 - pi_d_a3_a6_proc_3
      - pi_d_a3_a6_proc_0 - pi_d_a3_a6_proc_1 + pi_d_a6_a3_proc_3
      + pi_d_a6_a3_proc_0 + pi_d_a6_a3_proc_1 - pi_d_a4_a6_proc_2
      - pi_d_a4_a6_proc_0 - pi_d_a4_a6_proc_1 + pi_d_a6_a4_proc_2
      + pi_d_a6_a4_proc_0 + pi_d_a6_a4_proc_1 - pi_d_a5_a6_proc_2
      - pi_d_a5_a6_proc_1 + pi_d_a6_a5_proc_2 + pi_d_a6_a5_proc_1
      + pi_d_a6_a7_proc_2 + pi_d_a6_a7_proc_3 + pi_d_a6_a7_proc_0
      + pi_d_a6_a7_proc_1 - pi_d_a7_a6_proc_2 - pi_d_a7_a6_proc_3
      - pi_d_a7_a6_proc_0 - pi_d_a7_a6_proc_1 + pi_d_a6_a8_proc_2
      + pi_d_a6_a8_proc_0 + pi_d_a6_a8_proc_1 - pi_d_a8_a6_proc_2
      - pi_d_a8_a6_proc_0 - pi_d_a8_a6_proc_1 + pi_d_a6_a9_proc_2
      + pi_d_a6_a9_proc_3 + pi_d_a6_a9_proc_0 + pi_d_a6_a9_proc_1
      - pi_d_a9_a6_proc_2 - pi_d_a9_a6_proc_3 - pi_d_a9_a6_proc_0
      - pi_d_a9_a6_proc_1 >= 0
 c27: 1037 pi_p_a6_a7 + 1037 pi_p_a6_a3 + 1037 pi_p_a6_a5
      + 1037 pi_d_a6_a0_proc_0 + 1037 pi_d_a6_a1_proc_0 + 1037 pi_d_a6_a2_proc_0
      + 1037 pi_d_a6_a3_proc_0 + 1037 pi_d_a6_a4_proc_0 + 1037 pi_d_a6_a7_proc_0
      + 1037 pi_d_a6_a8_proc_0 + 1037 pi_d_a6_a9_proc_0 + pi_y1_a6
      + pi_y2_a6_proc_0 >= 0
 c28: 946 pi_p_a6_a7 + 946 pi_p_a6_a3 + 946 pi_p_a6_a5 + 946 pi_d_a6_a0_proc_1
      + 946 pi_d_a6_a3_proc_1 + 946 pi_d_a6_a4_proc_1 + 946 pi_d_a6_a5_proc_1
      + 946 pi_d_a6_a7_proc_1 + 946 pi_d_a6_a8_proc_1 + 946 pi_d_a6_a9_proc_1
      + pi_y1_a6 + pi_y2_a6_proc_1 >= 0
 c29: 822 pi_p_a6_a7 + 822 pi_p_a6_a3 + 822 pi_p_a6_a5 + 822 pi_d_a6_a0_proc_2
      + 822 pi_d_a6_a1_proc_2 + 822 pi_d_a6_a2_proc_2 + 822 pi_d_a6_a4_proc_2
      + 822 pi_d_a6_a5_proc_2 + 822 pi_d_a6_a7_proc_2 + 822 pi_d_a6_a8_proc_2
      + 822 pi_d_a6_a9_proc_2 + pi_y1_a6 + pi_y2_a6_proc_2 >= 0
 c30: 1227 pi_p_a6_a7 + 1227 pi_p_a6_a3 + 1227 pi_p_a6_a5
      + 1227 pi_d_a6_a0_proc_3 + 1227 pi_d_a6_a1_proc_3 + 1227 pi_d_a6_a2_proc_3
      + 1227 pi_d_a6_a3_proc_3 + 1227 pi_d_a6_a7_proc_3 + 1227 pi_d_a6_a9_proc_3
      + pi_y1_a6 + pi_y2_a6_proc_3 >= 0
 c31: - pi_p_a6_a7 + pi_p_a7_a2 - pi_d_a0_a7_proc_2 - pi_d_a0_a7_proc_3
      - pi_d_a0_a7_proc_0 - pi_d_a0_a7_proc_1 + pi_d_a7_a0_proc_2
      + pi_d_a7_a0_proc_3 + pi_d_a7_a0_proc_0 + pi_d_a7_a0_proc_1
      - pi_d_a1_a7_proc_2 - pi_d_a1_a7_proc_3 - pi_d_a1_a7_proc_0
      + pi_d_a7_a1_proc_2 + pi_d_a7_a1_proc_3 + pi_d_a7_a1_proc_0
      - pi_d_a2_a7_proc_2 - pi_d_a2_a7_proc_3 - pi_d_a2_a7_proc_0
      + pi_d_a7_a2_proc_2 + pi_d_a7_a2_proc_3 + pi_d_a7_a2_proc_0
      - pi_d_a3_a7_proc_3 - pi_d_a3_a7_proc_0 - pi_d_a3_a7_proc_1
      + pi_d_a7_a3_proc_3 + pi_d_a7_a3_proc_0 + pi_d_a7_a3_proc_1
      - pi_d_a4_a7_proc_2 - pi_d_a4_a7_proc_0 - pi_d_a4_a7_proc_1
      + pi_d_a7_a4_proc_2 + pi_d_a7_a4_proc_0 + pi_d_a7_a4_proc_1
      - pi_d_a5_a7_proc_2 - pi_d_a5_a7_proc_1 + pi_d_a7_a5_proc_2
      + pi_d_a7_a5_proc_1 - pi_d_a6_a7_proc_2 - pi_d_a6_a7_proc_3
      - pi_d_a6_a7_proc_0 - pi_d_a6_a7_proc_1 + pi_d_a7_a6_proc_2
      + pi_d_a7_a6_proc_3 + pi_d_a7_a6_proc_0 + pi_d_a7_a6_proc_1
      + pi_d_a7_a8_proc_2 + pi_d_a7_a8_proc_0 + pi_d_a7_a8_proc_1
      - pi_d_a8_a7_proc_2 - pi_d_a8_a7_proc_0 - pi_d_a8_a7_proc_1
      + pi_d_a7_a9_proc_2 + pi_d_a7_a9_proc_3 + pi_d_a7_a9_proc_0
      + pi_d_a7_a9_proc_1 - pi_d_a9_a7_proc_2 - pi_d_a9_a7_proc_3
      - pi_d_a9_a7_proc_0 - pi_d_a9_a7_proc_1 >= 0
 c32: 1242 pi_p_a7_a2 + 1242 pi_d_a7_a0_proc_0 + 1242 pi_d_a7_a1_proc_0
      + 1242 pi_d_a7_a2_proc_0 + 1242 pi_d_a7_a3_proc_0 + 1242 pi_d_a7_a4_proc_0
      + 1242 pi_d_a7_a6_proc_0 + 1242 pi_d_a7_a8_proc_0 + 1242 pi_d_a7_a9_proc_0
      + pi_y1_a7 + pi_y2_a7_proc_0 >= 0
 c33: 1282 pi_p_a7_a2 + 1282 pi_d_a7_a0_proc_1 + 1282 pi_d_a7_a3_proc_1
      + 1282 pi_d_a7_a4_proc_1 + 1282 pi_d_a7_a5_proc_1 + 1282 pi_d_a7_a6_proc_1
      + 1282 pi_d_a7_a8_proc_1 + 1282 pi_d_a7_a9_proc_1 + pi_y1_a7
      + pi_y2_a7_proc_1 >= 0
 c34: 852 pi_p_a7_a2 + 852 pi_d_a7_a0_proc_2 + 852 pi_d_a7_a1_proc_2
      + 852 pi_d_a7_a2_proc_2 + 852 pi_d_a7_a4_proc_2 + 852 pi_d_a7_a5_proc_2
      + 852 pi_d_a7_a6_proc_2 + 852 pi_d_a7_a8_proc_2 + 852 pi_d_a7_a9_proc_2
      + pi_y1_a7 + pi_y2_a7_proc_2 >= 0
 c35: 806 pi_p_a7_a2 + 806 pi_d_a7_a0_proc_3 + 806 pi_d_a7_a1_proc_3
      + 806 pi_d_a7_a2_proc_3 + 806 pi_d_a7_a3_proc_3 + 806 pi_d_a7_a6_proc_3
      + 806 pi_d_a7_a9_proc_3 + pi_y1_a7 + pi_y2_a7_proc_3 >= 0
 c36: - pi_p_a3_a8 - pi_p_a9_a8 + pi_p_a8_a5 - pi_p_a5_a8 - pi_d_a0_a8_proc_2
      - pi_d_a0_a8_proc_0 - pi_d_a0_a8_proc_1 + pi_d_a8_a0_proc_2
      + pi_d_a8_a0_proc_0 + pi_d_a8_a0_proc_1 - pi_d_a1_a8_proc_2
      - pi_d_a1_a8_proc_0 + pi_d_a8_a1_proc_2 + pi_d_a8_a1_proc_0
      - pi_d_a2_a8_proc_2 - pi_d_a2_a8_proc_0 + pi_d_a8_a2_proc_2
      + pi_d_a8_a2_proc_0 - pi_d_a3_a8_proc_0 - pi_d_a3_a8_proc_1
      + pi_d_a8_a3_proc_0 + pi_d_a8_a3_proc_1 - pi_d_a4_a8_proc_2
      - pi_d_a4_a8_proc_0 - pi_d_a4_a8_proc_1 + pi_d_a8_a4_proc_2
      + pi_d_a8_a4_proc_0 + pi_d_a8_a4_proc_1 - pi_d_a5_a8_proc_2
      - pi_d_a5_a8_proc_1 + pi_d_a8_a5_proc_2 + pi_d_a8_a5_proc_1
      - pi_d_a6_a8_proc_2 - pi_d_a6_a8_proc_0 - pi_d_a6_a8_proc_1
      + pi_d_a8_a6_proc_2 + pi_d_a8_a6_proc_0 + pi_d_a8_a6_proc_1
      - pi_d_a7_a8_proc_2 - pi_d_a7_a8_proc_0 - pi_d_a7_a8_proc_1
      + pi_d_a8_a7_proc_2 + pi_d_a8_a7_proc_0 + pi_d_a8_a7_proc_1
      + pi_d_a8_a9_proc_2 + pi_d_a8_a9_proc_0 + pi_d_a8_a9_proc_1
      - pi_d_a9_a8_proc_2 - pi_d_a9_a8_proc_0 - pi_d_a9_a8_proc_1 >= 0
 c37: 1150 pi_p_a8_a5 + 1150 pi_d_a8_a0_proc_0 + 1150 pi_d_a8_a1_proc_0
      + 1150 pi_d_a8_a2_proc_0 + 1150 pi_d_a8_a3_proc_0 + 1150 pi_d_a8_a4_proc_0
      + 1150 pi_d_a8_a6_proc_0 + 1150 pi_d_a8_a7_proc_0 + 1150 pi_d_a8_a9_proc_0
      + pi_y1_a8 + pi_y2_a8_proc_0 >= 0
 c38: 923 pi_p_a8_a5 + 923 pi_d_a8_a0_proc_1 + 923 pi_d_a8_a3_proc_1
      + 923 pi_d_a8_a4_proc_1 + 923 pi_d_a8_a5_proc_1 + 923 pi_d_a8_a6_proc_1
      + 923 pi_d_a8_a7_proc_1 + 923 pi_d_a8_a9_proc_1 + pi_y1_a8
      + pi_y2_a8_proc_1 >= 0
 c39: 799 pi_p_a8_a5 + 799 pi_d_a8_a0_proc_2 + 799 pi_d_a8_a1_proc_2
      + 799 pi_d_a8_a2_proc_2 + 799 pi_d_a8_a4_proc_2 + 799 pi_d_a8_a5_proc_2
      + 799 pi_d_a8_a6_proc_2 + 799 pi_d_a8_a7_proc_2 + 799 pi_d_a8_a9_proc_2
      + pi_y1_a8 + pi_y2_a8_proc_2 >= 0
 c40: - pi_p_a0_a9 + pi_p_a9_a8 - pi_p_a4_a9 - pi_d_a0_a9_proc_2
      - pi_d_a0_a9_proc_3 - pi_d_a0_a9_proc_0 - pi_d_a0_a9_proc_1
      + pi_d_a9_a0_proc_2 + pi_d_a9_a0_proc_3 + pi_d_a9_a0_proc_0
      + pi_d_a9_a0_proc_1 - pi_d_a1_a9_proc_2 - pi_d_a1_a9_proc_3
      - pi_d_a1_a9_proc_0 + pi_d_a9_a1_proc_2 + pi_d_a9_a1_proc_3
      + pi_d_a9_a1_proc_0 - pi_d_a2_a9_proc_2 - pi_d_a2_a9_proc_3
      - pi_d_a2_a9_proc_0 + pi_d_a9_a2_proc_2 + pi_d_a9_a2_proc_3
      + pi_d_a9_a2_proc_0 - pi_d_a3_a9_proc_3 - pi_d_a3_a9_proc_0
      - pi_d_a3_a9_proc_1 + pi_d_a9_a3_proc_3 + pi_d_a9_a3_proc_0
      + pi_d_a9_a3_proc_1 - pi_d_a4_a9_proc_2 - pi_d_a4_a9_proc_0
      - pi_d_a4_a9_proc_1 + pi_d_a9_a4_proc_2 + pi_d_a9_a4_proc_0
      + pi_d_a9_a4_proc_1 - pi_d_a5_a9_proc_2 - pi_d_a5_a9_proc_1
      + pi_d_a9_a5_proc_2 + pi_d_a9_a5_proc_1 - pi_d_a6_a9_proc_2
      - pi_d_a6_a9_proc_3 - pi_d_a6_a9_proc_0 - pi_d_a6_a9_proc_1
      + pi_d_a9_a6_proc_2 + pi_d_a9_a6_proc_3 + pi_d_a9_a6_proc_0
      + pi_d_a9_a6_proc_1 - pi_d_a7_a9_proc_2 - pi_d_a7_a9_proc_3
      - pi_d_a7_a9_proc_0 - pi_d_a7_a9_proc_1 + pi_d_a9_a7_proc_2
      + pi_d_a9_a7_proc_3 + pi_d_a9_a7_proc_0 + pi_d_a9_a7_proc_1
      - pi_d_a8_a9_proc_2 - pi_d_a8_a9_proc_0 - pi_d_a8_a9_proc_1
      + pi_d_a9_a8_proc_2 + pi_d_a9_a8_proc_0 + pi_d_a9_a8_proc_1 >= 0
 c41: 1295 pi_p_a9_a8 + 1295 pi_d_a9_a0_proc_0 + 1295 pi_d_a9_a1_proc_0
      + 1295 pi_d_a9_a2_proc_0 + 1295 pi_d_a9_a3_proc_0 + 1295 pi_d_a9_a4_proc_0
      + 1295 pi_d_a9_a6_proc_0 + 1295 pi_d_a9_a7_proc_0 + 1295 pi_d_a9_a8_proc_0
      + pi_y1_a9 + pi_y2_a9_proc_0 >= 0
 c42: 941 pi_p_a9_a8 + 941 pi_d_a9_a0_proc_1 + 941 pi_d_a9_a3_proc_1
      + 941 pi_d_a9_a4_proc_1 + 941 pi_d_a9_a5_proc_1 + 941 pi_d_a9_a6_proc_1
      + 941 pi_d_a9_a7_proc_1 + 941 pi_d_a9_a8_proc_1 + pi_y1_a9
      + pi_y2_a9_proc_1 >= 0
 c43: 1199 pi_p_a9_a8 + 1199 pi_d_a9_a0_proc_2 + 1199 pi_d_a9_a1_proc_2
      + 1199 pi_d_a9_a2_proc_2 + 1199 pi_d_a9_a4_proc_2 + 1199 pi_d_a9_a5_proc_2
      + 1199 pi_d_a9_a6_proc_2 + 1199 pi_d_a9_a7_proc_2 + 1199 pi_d_a9_a8_proc_2
      + pi_y1_a9 + pi_y2_a9_proc_2 >= 0
 c44: 1107 pi_p_a9_a8 + 1107 pi_d_a9_a0_proc_3 + 1107 pi_d_a9_a1_proc_3
      + 1107 pi_d_a9_a2_proc_3 + 1107 pi_d_a9_a3_proc_3 + 1107 pi_d_a9_a6_proc_3
      + 1107 pi_d_a9_a7_proc_3 + pi_y1_a9 + pi_y2_a9_proc_3 >= 0

Bounds
       pi_y1_a0 Free
       pi_y1_a1 Free
       pi_y1_a2 Free
       pi_y1_a3 Free
       pi_y1_a4 Free
       pi_y1_a5 Free
       pi_y1_a6 Free
       pi_y1_a7 Free
       pi_y1_a8 Free
       pi_y1_a9 Free
End
