benchmark/results/graph__10-1000-0.10-04_19/graph__10-1000-0.10-04_19_Quinton_Benders_sub.txt
solution for: Quinton Benders_dual_sub
objective: 0.000361664
status: OPTIMAL_SOLUTION(2)
pi_p_a0_a9=0.000
pi_d_a8_a0_proc_1=0.000
pi_d_a9_a8_proc_1=0.000
pi_y1_a0=-0.326
pi_y1_a8=-0.334
pi_y1_a9=-0.340
pi_y2_a8_proc_0=0.334
pi_y2_a8_proc_2=0.334
pi_y2_a9_proc_0=0.340
pi_y2_a9_proc_2=0.340
pi_y2_a9_proc_3=0.340
